language Essence 1.3

letting bot_end be [110, 119, 27, 93, 25, 138, 118, 26, 84, 139, 94, 95, 121, 12, 13, 56, 117, 16; int(1..18)]
letting bot_start be [29, 150, 143, 47, 7, 110, 124, 11, 19, 112, 151, 97, 126, 53, 92, 5, 133, 59; int(1..18)]
letting bots be 18
letting buffer_col be 2
letting buffer_row be 2
letting corridor_size be 1
letting n_shelves_col be 4
letting n_shelves_row be 3
letting shelf_col_size be 2
letting shelf_row_size be 1
